time,Area,TPK1czm_X,TPK1czm_Y,TPK1czm_Z,nonlin,stress_xx,stress_xy,stress_xz,stress_yy,stress_yz,stress_zz,tczm_X,tczm_Y,tczm_Z
0,0,0,0,0,0,0,0,0,0,0,0,0,0,0
0.25,0.98488399981024,-1.3761194673424e-14,4.8456791551849e-14,24.999999999999,4,1.7985612998928e-13,7.2150411928087e-15,-1.2499301988152e-14,1.7985612998928e-13,-1.0442436783137e-14,25.383700014232,-1.3972401497106e-14,4.9200506416172e-14,25.383700014231
0.5,0.96952853211795,-2.0604750544036e-13,-1.1884979142392e-13,50.000000000001,4,-1.1723955140042e-13,3.1967568922935e-15,2.5045601010738e-14,-2.0161650127193e-13,8.8207784433307e-15,51.571458026897,-2.1252340556729e-13,-1.2258514059848e-13,51.571458026898
0.75,0.95391775533955,1.6922929858552e-13,-5.8196543827135e-13,75.000000000001,4,-2.6112445539184e-13,-7.5869168695944e-15,2.3605614311954e-16,-2.8332891588434e-13,1.1815553601898e-14,78.623130327733,1.774044959728e-13,-6.100792599926e-13,78.623130327734
1,0.93803397538699,-6.4174962248936e-14,2.9073391355302e-13,99.999999999999,4,4.9737991503207e-14,4.2289823528722e-14,5.4974054732949e-14,1.1368683772162e-13,3.1049024788196e-14,106.60594671824,-6.8414326061548e-14,3.0993964097417e-13,106.60594671823
1.25,0.9379952951779,38.274814935138,6.2991886012886e-13,92.436363177511,5,15.616973485766,2.4225182949054e-14,37.697244961619,0.0077588169115677,-2.6185759290087e-14,91.049295424534,40.804911423227,6.7155829508447e-13,98.546723691167
1.5,0.93799681011489,70.734953179984,2.7086102458163e-13,70.750533544802,5,53.320202795879,2.7226620480728e-14,53.324454376221,0.0074542563904242,-4.5801524465455e-14,53.343692662463,75.410654297769,2.8876510557718e-13,75.427264551289
1.75,0.93799798968724,92.424825499458,4.4244902880353e-13,38.294047621798,5,91.029358572396,2.2521291472358e-14,37.7128655618,0.0072168359526232,-5.1458213775127e-14,15.632687117504,98.534140281341,4.7169516556589e-13,40.825298180614
2,0.93799884370566,100.04285475713,1.5019582799702e-13,0.0084142085166174,5,106.65362951735,-1.3774192290233e-14,0.0089701734606109,0.0070447551236754,-6.8233423468692e-14,0.0070746346654696,106.65562695355,1.6012321676917e-13,0.0089703826108956
