time,Area,TPK1czm_X,TPK1czm_Y,TPK1czm_Z,nonlin,stress_xx,stress_xy,stress_xz,stress_yy,stress_yz,stress_zz,tczm_X,tczm_Y,tczm_Z
0,0,0,0,0,0,0,0,0,0,0,0,0,0,0
0.25,0.98488399981024,1.2167891396269e-13,-1.0741040767021e-13,24.999999999999,4,3.0220270730297e-13,4.1536372514641e-15,-8.5192633168718e-16,3.0220270730297e-13,-1.2500830216731e-14,25.383700014232,1.2354644200346e-13,-1.0905894266828e-13,25.383700014231
0.5,0.96952853211795,3.3126520412542e-13,2.2306667844229e-13,50,4,2.5668356329334e-13,3.1289094404907e-14,2.6860413703755e-14,2.9931612743894e-13,4.9814392352816e-14,51.571458026897,3.4167659140651e-13,2.3007747688971e-13,51.571458026897
0.75,0.95391775533955,3.2855422608392e-13,4.1106374792891e-13,75,4,-1.7141843500212e-13,1.7874520440258e-14,1.3158763749333e-14,-1.2878587085652e-13,1.5663121329402e-14,78.623130327733,3.4442615649498e-13,4.3092158168562e-13,78.623130327733
1,0.93803397538699,-8.6980830798195e-14,4.0561199552029e-13,99.999999999998,4,-3.0198066269804e-14,-1.2836658766014e-14,-5.079403997914e-14,-3.0198066269804e-14,-7.6142345309971e-14,106.60594671824,-9.2726738135802e-14,4.3240650782713e-13,106.60594671823
1.25,0.9379951529154,38.274816123325,-1.6529616217453e-13,92.43655073555,5,15.616973107257,-2.2829069364072e-14,37.697249838238,0.0077873717357813,1.357296436702e-14,91.049517916955,40.804918878698,-1.7622275166884e-13,98.546938593708
1.5,0.93799673782165,70.734966977665,-4.1434173800314e-13,70.750644862294,5,53.320185886635,1.455039973057e-14,53.324496195808,0.0074687938987773,1.1654604148079e-14,53.343822780466,75.410674819548,-4.4172998592273e-13,75.427389040395
1.75,0.93799797869601,92.424812849388,-1.7760359155572e-13,38.294114116971,5,91.029322030153,5.5021091849294e-15,37.712920047298,0.0072190908773875,2.5341735003861e-15,15.632741442886,98.534127949695,-1.8934289899852e-13,40.825369549524
2,0.9379988860315,100.04280353236,2.3478636569652e-13,0.0084771969626605,5,106.65357250038,-2.1567491716168e-15,0.0090373236984593,0.0070363265539051,-4.6376341352253e-14,0.0070664292554862,106.65556753018,2.5030541875304e-13,0.0090375341473228
